10	5	2	0
0	1	5	1	3	4	7	2	[0 0 0]	[0 0 0]	[0 0 0]	[0 0 0]	[0 0 0]
1	3	4	8	6	11	7	[1 5 4 26 0 0 8 16 17]	[-1 2 5 -6 9 14 17 3 -4]	[2 10 7]	[1 2 3 23 13 1 14 -1 3]
2	3	3	5	6	7	[1 5 2 12 17 20 9 6 16]	[6 0 3 14 -3 21 15 11 5]	[1 5 -1 11 6 10 15 0 -5]
3	3	3	6	7	4	[4 0 1 2 3 3 0 5 2]	[5 6 0 9 -4 11 0 5 5]	[4 -2 -2 14 11 12 0 2 1]
4	3	2	11	5	[7 10 1]	[9 -3 4 -3 21 21 1 0 3]
5	3	4	10	3	8	9	[3 1 3 0 8 9 2 1 0]	[-9 -27 -23 -9 -11 -9 -31 -18 -14]	[2 0 3 5 3 2 2 2 0]	[1 2 1 7 8 4 1 1 0]
6	3	2	9	10	[2 -2 5 0 9 8 15 18 -1]	[3 7 2 2 10 -1 11 17 3]
7	3	1	11	[5 1 9]
8	3	1	11	[10 3 8]
9	3	1	11	[1 7 9]
10	3	2	11	1	[8 8 10]	[-25 -8 -7 -28 -27 -15 -15 -5 -7]
11	1	0
0	1	0	0	0	0	0	0	0	0
1	1	2	5	1	5	4	2	3	4
	2	10	5	1	5	4	2	3	4
	3	7	5	1	5	4	2	3	4
2	1	2	5	5	4	5	1	2	1
	2	9	5	5	4	5	1	2	1
	3	7	5	5	4	5	1	2	1
3	1	3	4	2	1	5	1	2	1
	2	5	4	2	1	5	1	2	1
	3	2	4	2	1	5	1	2	1
4	1	7	5	2	4	5	1	3	1
	2	10	5	2	4	5	1	3	1
	3	1	5	2	4	5	1	3	1
5	1	1	5	5	1	3	4	3	2
	2	3	5	5	1	3	4	3	2
	3	1	5	5	1	3	4	3	2
6	1	3	2	3	5	4	1	1	4
	2	7	2	3	5	4	1	1	4
	3	6	2	3	5	4	1	1	4
7	1	5	5	5	2	1	1	4	4
	2	1	5	5	2	1	1	4	4
	3	9	5	5	2	1	1	4	4
8	1	10	1	1	2	4	4	3	3
	2	3	1	1	2	4	4	3	3
	3	8	1	1	2	4	4	3	3
9	1	1	3	5	4	4	2	1	4
	2	7	3	5	4	4	2	1	4
	3	9	3	5	4	4	2	1	4
10	1	8	1	5	2	2	2	4	1
	2	8	1	5	2	2	2	4	1
	3	10	1	5	2	2	2	4	1
11	1	0	0	0	0	0	0	0	0
16	16	15	18	11	26	51
